NAME : traveling-santa-2018-prime-paths.30182.tour
COMMENT : Length = 30182
COMMENT : Found by LKH [Keld Helsgaun] Sun Jun 12 19:59:28 2022
TYPE : TOUR
DIMENSION : 100
TOUR_SECTION
1
77
76
15
74
89
80
71
34
61
86
85
28
21
31
43
53
7
63
87
30
8
90
59
62
57
14
29
98
47
2
46
45
32
56
23
67
97
84
17
64
50
39
52
41
88
93
55
82
94
19
54
24
4
49
10
100
12
96
48
72
73
18
42
99
33
83
26
66
6
60
92
68
36
69
37
11
13
65
27
38
40
5
81
75
79
3
44
22
16
51
25
9
20
58
95
91
35
70
78
-1
EOF
